row=11;
column=11;
Board=[|0,1,0,1,0,1,1,1,1,0,1|1,1,1,1,1,1,1,0,1,0,0|1,0,0,0,0,0,0,0,0,0,0|0,0,0,0,0,0,0,0,1,0,0|0,0,0,0,1,0,0,0,0,0,0|0,0,1,0,0,0,0,0,0,0,0|0,0,0,0,0,0,0,0,0,0,0|0,0,0,0,0,0,0,0,0,0,0|1,0,0,0,0,0,0,0,1,0,0|0,0,0,0,1,0,0,0,0,0,0|0,0,0,0,0,0,0,0,0,0,0|];
right = [4,1,1,2,3,1,1,2,2,3,2];
bottom = [4,0,1,4,1,4,0,3,1,4,0];
